% 
% Converted by convert_jobshop2.pl
% 
% original file (la13) from Google or-tools SVN repository
%   or-tools-read-only/data/jobshop/la13
%
%
% This data file is to be used with either of these two MiniZinc models:
%    http://www.hakank.org/minizinc/jobshop.mzn
%    http://www.hakank.org/minizinc/jobshop2.mzn
%


 
% +++++++++++++++++++++++++++++
% instance la13
% +++++++++++++++++++++++++++++
% Lawrence 20x5 instance (Table 5, instance 3); also called (seth3) or (H3)

num_machines = 20;
num_jobs = 5;
max_time = 99999; 

%
% The times for each job.
%
job_times = array2d(1..num_machines, 1..num_jobs,
[
60,87,72,95,66,
54,48,39,35,5,
20,46,97,21,55,
37,59,19,34,46,
73,25,24,28,23,
78,28,83,45,5,
71,37,12,29,53,
12,33,55,87,38,
48,40,49,83,7,
90,27,65,17,23,
62,85,66,84,19,
59,46,13,64,25,
53,73,80,88,41,
57,47,14,67,74,
41,64,84,78,84,
52,28,26,63,46,
11,64,10,73,17,
38,95,85,97,67,
93,65,95,59,46,
60,85,43,85,32,
]);


%
% The order each job must be done.
%
job_order = array2d(1..num_machines, 1..num_jobs,
[
3,0,1,4,2,
1,0,2,3,4,
3,1,0,2,4,
2,0,3,1,4,
2,3,1,0,4,
1,3,2,0,4,
3,1,2,4,0,
4,3,1,2,0,
0,1,2,3,4,
0,4,2,3,1,
0,3,1,2,4,
3,2,4,1,0,
2,1,3,4,0,
2,4,0,1,3,
2,4,3,1,0,
4,3,2,0,1,
1,0,3,4,2,
4,3,0,1,2,
3,1,2,0,4,
0,1,2,4,3,
]);
